NAME Model5
ROWS
 N  OBJ
 E  c0      
 E  c1      
 E  c2      
 E  c3      
 E  c4      
 E  c5      
 L  c6      
 L  c7      
 L  c8      
 L  c9      
 L  c10     
 L  c11     
 G  c12     
 G  c13     
 G  c14     
 G  c15     
 G  c16     
 G  c17     
 G  c18     
 G  c19     
 G  c20     
 G  c21     
 G  c22     
 G  c23     
 G  c24     
 G  c25     
 G  c26     
 G  c27     
 G  c28     
 G  c29     
 G  c30     
 G  c31     
 G  c32     
 G  c33     
 G  c34     
 G  c35     
 G  c36     
 G  c37     
 G  c38     
 G  c39     
 G  c40     
 G  c41     
 G  c42     
 G  c43     
 G  c44     
 G  c45     
 G  c46     
 G  c47     
 G  c48     
 G  c49     
 G  c50     
 G  c51     
 L  c52     
 G  c53     
 L  c54     
 G  c55     
 L  c56     
 G  OF_constraint
COLUMNS
    MARKER    'MARKER'                 'INTORG'
    y[0,0,1]  c0        1
    y[0,0,1]  c6        -1000000
    y[0,0,1]  c12       -1000000
    y[0,0,1]  c13       -1000000
    y[0,0,1]  c14       -1000000
    y[0,0,1]  c15       -1000000
    y[0,0,1]  c16       -1000000
    y[0,0,1]  c17       -1000000
    y[0,0,1]  c18       -1000000
    y[0,0,1]  c19       -1000000
    y[0,0,1]  c20       -1000000
    y[0,0,1]  c21       -1000000
    y[0,0,1]  c37       -3
    y[0,0,1]  c51       4
    y[0,0,1]  c52       4
    y[0,1,1]  c1        1
    y[0,1,1]  c7        -1000000
    y[0,1,1]  c12       -1000000
    y[0,1,1]  c13       -1000000
    y[0,1,1]  c20       -1000000
    y[0,1,1]  c21       -1000000
    y[0,1,1]  c22       -1000000
    y[0,1,1]  c23       -1000000
    y[0,1,1]  c24       -1000000
    y[0,1,1]  c25       -1000000
    y[0,1,1]  c26       -1000000
    y[0,1,1]  c27       -1000000
    y[0,1,1]  c48       -5
    y[1,0,0]  c2        1
    y[1,0,0]  c8        -1000000
    y[1,0,0]  c41       -2
    y[1,0,0]  c53       4
    y[1,0,0]  c54       4
    y[1,1,1]  c3        1
    y[1,1,1]  c9        -1000000
    y[1,1,1]  c14       -1000000
    y[1,1,1]  c15       -1000000
    y[1,1,1]  c22       -1000000
    y[1,1,1]  c23       -1000000
    y[1,1,1]  c28       -1000000
    y[1,1,1]  c29       -1000000
    y[1,1,1]  c30       -1000000
    y[1,1,1]  c31       -1000000
    y[1,1,1]  c43       -2
    y[1,1,1]  c49       -3
    y[2,0,1]  c4        1
    y[2,0,1]  c10       -1000000
    y[2,0,1]  c16       -1000000
    y[2,0,1]  c17       -1000000
    y[2,0,1]  c24       -1000000
    y[2,0,1]  c25       -1000000
    y[2,0,1]  c28       -1000000
    y[2,0,1]  c29       -1000000
    y[2,0,1]  c32       -1000000
    y[2,0,1]  c33       -1000000
    y[2,0,1]  c34       -1000000
    y[2,0,1]  c35       -1000000
    y[2,0,1]  c55       3
    y[2,0,1]  c56       3
    y[2,1,1]  c5        1
    y[2,1,1]  c11       -1000000
    y[2,1,1]  c18       -1000000
    y[2,1,1]  c19       -1000000
    y[2,1,1]  c26       -1000000
    y[2,1,1]  c27       -1000000
    y[2,1,1]  c30       -1000000
    y[2,1,1]  c31       -1000000
    y[2,1,1]  c32       -1000000
    y[2,1,1]  c33       -1000000
    y[2,1,1]  c34       -1000000
    y[2,1,1]  c35       -1000000
    y[2,1,1]  c47       -2
    y[2,1,1]  c50       -4
    x[0,0,0,0]  OBJ       0
    x[0,0,0,1]  c12       -1000000
    x[0,0,0,1]  c13       1000000
    x[0,0,1,0]  OBJ       0
    x[0,0,1,1]  c14       -1000000
    x[0,0,1,1]  c15       1000000
    x[0,0,2,0]  c16       -1000000
    x[0,0,2,0]  c17       1000000
    x[0,0,2,1]  c18       -1000000
    x[0,0,2,1]  c19       1000000
    x[0,1,0,0]  c20       -1000000
    x[0,1,0,0]  c21       1000000
    x[0,1,0,1]  OBJ       0
    x[0,1,1,0]  OBJ       0
    x[0,1,1,1]  c22       -1000000
    x[0,1,1,1]  c23       1000000
    x[0,1,2,0]  c24       -1000000
    x[0,1,2,0]  c25       1000000
    x[0,1,2,1]  c26       -1000000
    x[0,1,2,1]  c27       1000000
    x[1,0,0,0]  OBJ       0
    x[1,0,0,1]  OBJ       0
    x[1,0,1,0]  OBJ       0
    x[1,0,1,1]  OBJ       0
    x[1,0,2,0]  OBJ       0
    x[1,0,2,1]  OBJ       0
    x[1,1,0,0]  OBJ       0
    x[1,1,0,1]  OBJ       0
    x[1,1,1,0]  OBJ       0
    x[1,1,1,1]  OBJ       0
    x[1,1,2,0]  c28       -1000000
    x[1,1,2,0]  c29       1000000
    x[1,1,2,1]  c30       -1000000
    x[1,1,2,1]  c31       1000000
    x[2,0,0,0]  OBJ       0
    x[2,0,0,1]  OBJ       0
    x[2,0,1,0]  OBJ       0
    x[2,0,1,1]  OBJ       0
    x[2,0,2,0]  OBJ       0
    x[2,0,2,1]  c32       -1000000
    x[2,0,2,1]  c33       1000000
    x[2,1,0,0]  OBJ       0
    x[2,1,0,1]  OBJ       0
    x[2,1,1,0]  OBJ       0
    x[2,1,1,1]  OBJ       0
    x[2,1,2,0]  c34       -1000000
    x[2,1,2,0]  c35       1000000
    x[2,1,2,1]  OBJ       0
    MARKER    'MARKER'                 'INTEND'
    s[0,0,1]  c6        1
    s[0,0,1]  c12       1
    s[0,0,1]  c13       -1
    s[0,0,1]  c14       1
    s[0,0,1]  c15       -1
    s[0,0,1]  c16       1
    s[0,0,1]  c17       -1
    s[0,0,1]  c18       1
    s[0,0,1]  c19       -1
    s[0,0,1]  c20       -1
    s[0,0,1]  c21       1
    s[0,0,1]  c36       1
    s[0,0,1]  c37       1
    s[0,0,1]  c48       1
    s[0,0,1]  c51       1
    s[0,0,1]  c52       1
    s[0,1,1]  c7        1
    s[0,1,1]  c12       -1
    s[0,1,1]  c13       1
    s[0,1,1]  c20       1
    s[0,1,1]  c21       -1
    s[0,1,1]  c22       1
    s[0,1,1]  c23       -1
    s[0,1,1]  c24       1
    s[0,1,1]  c25       -1
    s[0,1,1]  c26       1
    s[0,1,1]  c27       -1
    s[0,1,1]  c38       1
    s[0,1,1]  c39       1
    s[0,1,1]  c48       -1
    s[1,0,0]  c8        1
    s[1,0,0]  c40       1
    s[1,0,0]  c41       1
    s[1,0,0]  c49       1
    s[1,0,0]  c53       1
    s[1,0,0]  c54       1
    s[1,1,1]  c9        1
    s[1,1,1]  c14       -1
    s[1,1,1]  c15       1
    s[1,1,1]  c22       -1
    s[1,1,1]  c23       1
    s[1,1,1]  c28       1
    s[1,1,1]  c29       -1
    s[1,1,1]  c30       1
    s[1,1,1]  c31       -1
    s[1,1,1]  c42       1
    s[1,1,1]  c43       1
    s[1,1,1]  c49       -1
    s[2,0,1]  c10       1
    s[2,0,1]  c16       -1
    s[2,0,1]  c17       1
    s[2,0,1]  c24       -1
    s[2,0,1]  c25       1
    s[2,0,1]  c28       -1
    s[2,0,1]  c29       1
    s[2,0,1]  c32       1
    s[2,0,1]  c33       -1
    s[2,0,1]  c34       -1
    s[2,0,1]  c35       1
    s[2,0,1]  c44       1
    s[2,0,1]  c45       1
    s[2,0,1]  c50       1
    s[2,0,1]  c55       1
    s[2,0,1]  c56       1
    s[2,1,1]  c11       1
    s[2,1,1]  c18       -1
    s[2,1,1]  c19       1
    s[2,1,1]  c26       -1
    s[2,1,1]  c27       1
    s[2,1,1]  c30       -1
    s[2,1,1]  c31       1
    s[2,1,1]  c32       -1
    s[2,1,1]  c33       1
    s[2,1,1]  c34       1
    s[2,1,1]  c35       -1
    s[2,1,1]  c46       1
    s[2,1,1]  c47       1
    s[2,1,1]  c50       -1
    MARKER    'MARKER'                 'INTORG'
    Z_FO      OBJ       1
    Z_FO      OF_constraint  1
    C49       c51       -1000000
    C49       c52       -1000000
    C49       OF_constraint  6
    C50       c53       -1000000
    C50       c54       -1000000
    C50       OF_constraint  2
    C51       c55       -1000000
    C51       c56       -1000000
    C51       OF_constraint  7
    MARKER    'MARKER'                 'INTEND'
RHS
    RHS1      c0        1
    RHS1      c1        1
    RHS1      c2        1
    RHS1      c3        1
    RHS1      c4        1
    RHS1      c5        1
    RHS1      c12       -2999990
    RHS1      c13       -1999976
    RHS1      c14       -2999981
    RHS1      c15       -1999971
    RHS1      c16       -2999992
    RHS1      c17       -1999981
    RHS1      c18       -2999981
    RHS1      c19       -1999987
    RHS1      c20       -2999976
    RHS1      c21       -1999990
    RHS1      c22       -2999977
    RHS1      c23       -1999980
    RHS1      c24       -2999981
    RHS1      c25       -1999983
    RHS1      c26       -2999990
    RHS1      c27       -1999980
    RHS1      c28       -2999987
    RHS1      c29       -1999994
    RHS1      c30       -2999976
    RHS1      c31       -1999977
    RHS1      c32       -2999993
    RHS1      c33       -1999994
    RHS1      c34       -2999994
    RHS1      c35       -1999993
    RHS1      c51       -999990
    RHS1      c52       10
    RHS1      c53       -999994
    RHS1      c54       6
    RHS1      c55       -999990
    RHS1      c56       10
BOUNDS
 BV BND1      y[0,0,1]
 BV BND1      y[0,1,1]
 BV BND1      y[1,0,0]
 BV BND1      y[1,1,1]
 BV BND1      y[2,0,1]
 BV BND1      y[2,1,1]
 BV BND1      x[0,0,0,0]
 BV BND1      x[0,0,0,1]
 BV BND1      x[0,0,1,0]
 BV BND1      x[0,0,1,1]
 BV BND1      x[0,0,2,0]
 BV BND1      x[0,0,2,1]
 BV BND1      x[0,1,0,0]
 BV BND1      x[0,1,0,1]
 BV BND1      x[0,1,1,0]
 BV BND1      x[0,1,1,1]
 BV BND1      x[0,1,2,0]
 BV BND1      x[0,1,2,1]
 BV BND1      x[1,0,0,0]
 BV BND1      x[1,0,0,1]
 BV BND1      x[1,0,1,0]
 BV BND1      x[1,0,1,1]
 BV BND1      x[1,0,2,0]
 BV BND1      x[1,0,2,1]
 BV BND1      x[1,1,0,0]
 BV BND1      x[1,1,0,1]
 BV BND1      x[1,1,1,0]
 BV BND1      x[1,1,1,1]
 BV BND1      x[1,1,2,0]
 BV BND1      x[1,1,2,1]
 BV BND1      x[2,0,0,0]
 BV BND1      x[2,0,0,1]
 BV BND1      x[2,0,1,0]
 BV BND1      x[2,0,1,1]
 BV BND1      x[2,0,2,0]
 BV BND1      x[2,0,2,1]
 BV BND1      x[2,1,0,0]
 BV BND1      x[2,1,0,1]
 BV BND1      x[2,1,1,0]
 BV BND1      x[2,1,1,1]
 BV BND1      x[2,1,2,0]
 BV BND1      x[2,1,2,1]
 LI BND1      Z_FO      0
 BV BND1      C49     
 BV BND1      C50     
 BV BND1      C51     
QCMATRIX   OF_constraint
    s[0,0,1]  C49       -0.5
    C49       s[0,0,1]  -0.5
    s[1,0,0]  C50       -0.5
    C50       s[1,0,0]  -0.5
    s[2,0,1]  C51       -0.5
    C51       s[2,0,1]  -0.5
ENDATA
